NAME : portgen-18-52
COMMENT : portgen N=18, seed=52
TYPE : TSP
DIMENSION : 18
EDGE_WEIGHT_TYPE : EUC_2D
NODE_COORD_SECTION
1 884784 818738
2 225763 19475
3 87996 79309
4 804133 291520
5 629258 469169
6 848318 942127
7 348877 870950
8 377102 605941
9 244146 565064
10 988658 773969
11 737931 339809
12 268813 748688
13 476141 497217
14 779592 132652
15 197917 12319
16 428012 581839
17 466091 550705
18 119924 631739
